; 
(set-info :status unknown)
(declare-fun node_0x7ffff1460eb0 () (_ BitVec 64))
(declare-fun node_0x7ffff1449060 () (_ BitVec 1))
(declare-fun node_0x7ffff1449840 () (_ BitVec 1))
(declare-fun node_0x7ffff144c8f0 () (_ BitVec 1))
(declare-fun node_0x7ffff1450ee0 () (_ BitVec 1))
(declare-fun node_0x7ffff1458460 () (_ BitVec 1))
(declare-fun node_0x7ffff1457740 () (_ BitVec 1))
(declare-fun node_0x7ffff145e8f0 () (_ BitVec 1))
(declare-fun ine_0x7ffff149bb00 () (_ BitVec 1))
(declare-fun node_0x7ffff148ac00 () (_ BitVec 32))
(declare-fun node_0x7ffff1447850 () (_ BitVec 1))
(declare-fun node_0x7ffff14483e0 () (_ BitVec 1))
(declare-fun node_0x7ffff148c630 () (_ BitVec 32))
(declare-fun ieq_0x7ffff14923c0 () (_ BitVec 1))
(declare-fun ieq_0x7ffff1492020 () (_ BitVec 1))
(declare-fun or_0x7ffff148e6b0 () (_ BitVec 1))
(declare-fun carg_node_0x7ffff1443b00 () (_ BitVec 64))
(declare-fun node_0x7ffff148c0d0 () (_ BitVec 64))
(declare-fun fogt_0x7ffff148e360 () (_ BitVec 1))
(declare-fun node_0x7ffff148e1c0 () (_ BitVec 1))
(declare-fun node_0x7ffff148dcd0 () (_ BitVec 1))
(declare-fun node_0x7ffff148d890 () (_ BitVec 64))
(declare-fun fule_0x7ffff148de50 () (_ BitVec 1))
(declare-fun fogt_0x7ffff148ece0 () (_ BitVec 1))
(declare-fun carg_node_0x7ffff1443950 () (_ BitVec 64))
(declare-fun node_0x7ffff148b380 () (_ BitVec 64))
(declare-fun node_0x7ffff148a910 () (_ BitVec 64))
(declare-fun node_0x7ffff148bbe0 () (_ BitVec 1))
(declare-fun select_0x7ffff148c270 () (_ BitVec 64))
(declare-fun and_0x7ffff14900c0 () (_ BitVec 1))
(declare-fun folt_0x7ffff148fd60 () (_ BitVec 1))
(declare-fun node_0x7ffff148fbe0 () (_ BitVec 1))
(declare-fun node_0x7ffff148f720 () (_ BitVec 1))
(declare-fun fogt_0x7ffff148f890 () (_ BitVec 1))
(declare-fun select_0x7ffff148da30 () (_ BitVec 64))
(declare-fun node_0x7ffff148cf60 () (_ BitVec 64))
(declare-fun node_0x7ffff148a5e0 () (_ BitVec 64))
(declare-fun node_0x7ffff148d3a0 () (_ BitVec 1))
(declare-fun folt_0x7ffff148d520 () (_ BitVec 1))
(declare-fun fdiv_0x7ffff148a360 () (_ BitVec 64))
(declare-fun node_0x7ffff148a1c0 () (_ BitVec 64))
(declare-fun LdMem_0x7ffff1489e50 () (_ BitVec 64))
(declare-fun node_0x7ffff1489cd0 () (_ BitVec 64))
(declare-fun pcso_node_0x12a8ce50 () (_ BitVec 64))
(declare-fun StMem_0x12a8d000 () (_ BitVec 64))
(declare-fun R0x7ffff1443440 () (_ BitVec 1))
(declare-fun node_0x7ffff14891d0 () (_ BitVec 64))
(declare-fun fsub_0x7ffff1489370 () (_ BitVec 64))
(declare-fun LdMem_0x7ffff1480240 () (_ BitVec 64))
(declare-fun node_0x7ffff14881e0 () (_ BitVec 64))
(declare-fun node_0x7ffff1488d80 () (_ BitVec 64))
(declare-fun LdMem_0x7ffff1488f00 () (_ BitVec 64))
(declare-fun pcso_node_0x12a8a220 () (_ BitVec 64))
(declare-fun StMem_0x12a8a3d0 () (_ BitVec 64))
(declare-fun node_0x7ffff1484830 () (_ BitVec 64))
(declare-fun fdiv_0x7ffff14849d0 () (_ BitVec 64))
(declare-fun LdMem_0x7ffff14844c0 () (_ BitVec 64))
(declare-fun node_0x7ffff1484340 () (_ BitVec 64))
(declare-fun pcso_node_0x12a814c0 () (_ BitVec 64))
(declare-fun StMem_0x12a81670 () (_ BitVec 64))
(declare-fun node_0x7ffff1483840 () (_ BitVec 64))
(declare-fun fsub_0x7ffff14839e0 () (_ BitVec 64))
(declare-fun LdMem_0x7ffff14829f0 () (_ BitVec 64))
(declare-fun node_0x7ffff1482850 () (_ BitVec 64))
(declare-fun node_0x7ffff14833f0 () (_ BitVec 64))
(declare-fun LdMem_0x7ffff1483570 () (_ BitVec 64))
(declare-fun pcso_node_0x12a7e890 () (_ BitVec 64))
(declare-fun StMem_0x12a7ea40 () (_ BitVec 64))
(declare-fun select_0x7ffff148d100 () (_ BitVec 64))
(declare-fun node_0x7ffff147f140 () (_ BitVec 64))
(declare-fun node_0x7ffff1474e20 () (_ BitVec 64))
(declare-fun node_0x7ffff148ca70 () (_ BitVec 1))
(declare-fun folt_0x7ffff148cbf0 () (_ BitVec 1))
(declare-fun fmul_0x7ffff147ef10 () (_ BitVec 64))
(declare-fun node_0x7ffff147ed70 () (_ BitVec 64))
(declare-fun node_0x7ffff147aea0 () (_ BitVec 64))
(declare-fun node_0x7ffff147e9a0 () (_ BitVec 64))
(declare-fun fsub_0x7ffff147eb40 () (_ BitVec 64))
(declare-fun LdMem_0x7ffff14754c0 () (_ BitVec 64))
(declare-fun node_0x7ffff147d9b0 () (_ BitVec 64))
(declare-fun node_0x7ffff147e550 () (_ BitVec 64))
(declare-fun LdMem_0x7ffff147e6d0 () (_ BitVec 64))
(declare-fun pcso_node_0x12a755f0 () (_ BitVec 64))
(declare-fun StMem_0x12a757a0 () (_ BitVec 64))
(declare-fun node_0x7ffff147a130 () (_ BitVec 64))
(declare-fun node_0x7ffff1446bd0 () (_ BitVec 1))
(declare-fun node_0x7ffff1446040 () (_ BitVec 1))
(declare-fun fmul_0x7ffff147a2d0 () (_ BitVec 64))
(declare-fun node_0x7ffff14763a0 () (_ BitVec 64))
(declare-fun node_0x7ffff1479d60 () (_ BitVec 64))
(declare-fun fsub_0x7ffff1479f00 () (_ BitVec 64))
(declare-fun LdMem_0x7ffff1478f60 () (_ BitVec 64))
(declare-fun node_0x7ffff1478dc0 () (_ BitVec 64))
(declare-fun node_0x7ffff1479960 () (_ BitVec 64))
(declare-fun LdMem_0x7ffff1479ae0 () (_ BitVec 64))
(declare-fun pcso_node_0x12a6f630 () (_ BitVec 64))
(declare-fun StMem_0x12a6f7e0 () (_ BitVec 64))
(declare-fun fmul_0x7ffff1474640 () (_ BitVec 64))
(declare-fun node_0x7ffff14744a0 () (_ BitVec 64))
(declare-fun node_0x7ffff1470cc0 () (_ BitVec 64))
(declare-fun node_0x7ffff14740d0 () (_ BitVec 64))
(declare-fun fsub_0x7ffff1474270 () (_ BitVec 64))
(declare-fun LdMem_0x7ffff146d200 () (_ BitVec 64))
(declare-fun node_0x7ffff14730e0 () (_ BitVec 64))
(declare-fun node_0x7ffff1473c80 () (_ BitVec 64))
(declare-fun LdMem_0x7ffff1473e00 () (_ BitVec 64))
(declare-fun pcso_node_0x12a69050 () (_ BitVec 64))
(declare-fun StMem_0x12a69230 () (_ BitVec 64))
(declare-fun node_0x7ffff146ff40 () (_ BitVec 64))
(declare-fun node_0x7ffff1445290 () (_ BitVec 1))
(declare-fun node_0x7ffff1444e70 () (_ BitVec 1))
(declare-fun fmul_0x7ffff14700e0 () (_ BitVec 64))
(declare-fun node_0x7ffff146c880 () (_ BitVec 64))
(declare-fun node_0x7ffff146fb70 () (_ BitVec 64))
(declare-fun fsub_0x7ffff146fd10 () (_ BitVec 64))
(declare-fun LdMem_0x7ffff146ed00 () (_ BitVec 64))
(declare-fun node_0x7ffff146eb80 () (_ BitVec 64))
(declare-fun node_0x7ffff146f720 () (_ BitVec 64))
(declare-fun LdMem_0x7ffff146f8a0 () (_ BitVec 64))
(declare-fun pcso_node_0x12a63090 () (_ BitVec 64))
(declare-fun StMem_0x12a63270 () (_ BitVec 64))
(declare-fun islt_0x7ffff14911c0 () (_ BitVec 1))
(declare-fun select_0x7ffff148c7d0 () (_ BitVec 32))
(declare-fun node_0x7ffff148aef0 () (_ BitVec 1))
(declare-fun select_0x7ffff148b940 () (_ BitVec 32))
(declare-fun node_0x7ffff148b7c0 () (_ BitVec 32))
(declare-fun fogt_0x7ffff148bd60 () (_ BitVec 1))
(declare-fun fdiv_0x7ffff1487b60 () (_ BitVec 64))
(declare-fun node_0x7ffff14879c0 () (_ BitVec 64))
(declare-fun LdMem_0x7ffff1487650 () (_ BitVec 64))
(declare-fun node_0x7ffff14874d0 () (_ BitVec 64))
(declare-fun pcso_node_0x12a87240 () (_ BitVec 64))
(declare-fun StMem_0x12a873f0 () (_ BitVec 64))
(declare-fun node_0x7ffff14868c0 () (_ BitVec 64))
(declare-fun fsub_0x7ffff1486a60 () (_ BitVec 64))
(declare-fun LdMem_0x7ffff14865f0 () (_ BitVec 64))
(declare-fun node_0x7ffff1486470 () (_ BitVec 64))
(declare-fun pcso_node_0x12a844a0 () (_ BitVec 64))
(declare-fun StMem_0x12a84650 () (_ BitVec 64))
(declare-fun node_0x7ffff1485920 () (_ BitVec 64))
(declare-fun pcso_node_0x12a5d2d0 () (_ BitVec 64))
(declare-fun StMem_0x12a5d480 () (_ BitVec 64))
(declare-fun node_0x7ffff1482030 () (_ BitVec 64))
(declare-fun node_0x7ffff146b6d0 () (_ BitVec 64))
(declare-fun folt_0x7ffff1484c50 () (_ BitVec 1))
(declare-fun fogt_0x7ffff147fa50 () (_ BitVec 1))
(declare-fun LdMem_0x7ffff146b850 () (_ BitVec 64))
(declare-fun pcso_node_0x12a57ae0 () (_ BitVec 64))
(declare-fun StMem_0x12a57c90 () (_ BitVec 64))
(declare-fun fdiv_0x7ffff14821d0 () (_ BitVec 64))
(declare-fun LdMem_0x7ffff1481cc0 () (_ BitVec 64))
(declare-fun node_0x7ffff1481b40 () (_ BitVec 64))
(declare-fun pcso_node_0x12a7b780 () (_ BitVec 64))
(declare-fun StMem_0x12a7b930 () (_ BitVec 64))
(declare-fun node_0x7ffff1481040 () (_ BitVec 64))
(declare-fun fsub_0x7ffff14811e0 () (_ BitVec 64))
(declare-fun LdMem_0x7ffff1480d70 () (_ BitVec 64))
(declare-fun node_0x7ffff1480bf0 () (_ BitVec 64))
(declare-fun pcso_node_0x12a78b50 () (_ BitVec 64))
(declare-fun StMem_0x12a78d00 () (_ BitVec 64))
(declare-fun node_0x7ffff14800a0 () (_ BitVec 64))
(declare-fun pcso_node_0x12a5aa40 () (_ BitVec 64))
(declare-fun StMem_0x12a5abf0 () (_ BitVec 64))
(declare-fun select_0x7ffff148b520 () (_ BitVec 64))
(declare-fun node_0x7ffff147f470 () (_ BitVec 64))
(declare-fun node_0x7ffff14757a0 () (_ BitVec 64))
(declare-fun fogt_0x7ffff148b050 () (_ BitVec 1))
(declare-fun fmul_0x7ffff1466690 () (_ BitVec 64))
(declare-fun node_0x7ffff14664f0 () (_ BitVec 64))
(declare-fun fdiv_0x7ffff147b010 () (_ BitVec 64))
(declare-fun node_0x7ffff146ab20 () (_ BitVec 64))
(declare-fun node_0x7ffff147c610 () (_ BitVec 64))
(declare-fun fsub_0x7ffff14662c0 () (_ BitVec 64))
(declare-fun LdMem_0x7ffff147c340 () (_ BitVec 64))
(declare-fun node_0x7ffff147c1c0 () (_ BitVec 64))
(declare-fun pcso_node_0x12a72610 () (_ BitVec 64))
(declare-fun StMem_0x12a727c0 () (_ BitVec 64))
(declare-fun node_0x7ffff147b670 () (_ BitVec 64))
(declare-fun pcso_node_0x12a5ce80 () (_ BitVec 64))
(declare-fun StMem_0x12a5d030 () (_ BitVec 64))
(declare-fun node_0x7ffff14785d0 () (_ BitVec 64))
(declare-fun folt_0x7ffff147a500 () (_ BitVec 1))
(declare-fun fogt_0x7ffff1475f20 () (_ BitVec 1))
(declare-fun LdMem_0x7ffff146aca0 () (_ BitVec 64))
(declare-fun pcso_node_0x12a55260 () (_ BitVec 64))
(declare-fun StMem_0x12a55410 () (_ BitVec 64))
(declare-fun fmul_0x7ffff1478770 () (_ BitVec 64))
(declare-fun fdiv_0x7ffff1476d20 () (_ BitVec 64))
(declare-fun node_0x7ffff1478200 () (_ BitVec 64))
(declare-fun fsub_0x7ffff14783a0 () (_ BitVec 64))
(declare-fun LdMem_0x7ffff1477f30 () (_ BitVec 64))
(declare-fun node_0x7ffff1477db0 () (_ BitVec 64))
(declare-fun pcso_node_0x12a6c570 () (_ BitVec 64))
(declare-fun StMem_0x12a6c720 () (_ BitVec 64))
(declare-fun node_0x7ffff1477350 () (_ BitVec 64))
(declare-fun pcso_node_0x12a5a5f0 () (_ BitVec 64))
(declare-fun StMem_0x12a5a7a0 () (_ BitVec 64))
(declare-fun fmul_0x7ffff1472ab0 () (_ BitVec 64))
(declare-fun node_0x7ffff1472910 () (_ BitVec 64))
(declare-fun fdiv_0x7ffff1470e30 () (_ BitVec 64))
(declare-fun node_0x7ffff1469fe0 () (_ BitVec 64))
(declare-fun node_0x7ffff1472540 () (_ BitVec 64))
(declare-fun fsub_0x7ffff14726e0 () (_ BitVec 64))
(declare-fun LdMem_0x7ffff1472270 () (_ BitVec 64))
(declare-fun node_0x7ffff14720f0 () (_ BitVec 64))
(declare-fun pcso_node_0x12a66070 () (_ BitVec 64))
(declare-fun StMem_0x12a66250 () (_ BitVec 64))
(declare-fun node_0x7ffff1471490 () (_ BitVec 64))
(declare-fun pcso_node_0x12a5ca80 () (_ BitVec 64))
(declare-fun StMem_0x12a5cc60 () (_ BitVec 64))
(declare-fun node_0x7ffff146e380 () (_ BitVec 64))
(declare-fun folt_0x7ffff14705a0 () (_ BitVec 1))
(declare-fun fogt_0x7ffff146c340 () (_ BitVec 1))
(declare-fun LdMem_0x7ffff146a160 () (_ BitVec 64))
(declare-fun pcso_node_0x12a52ff0 () (_ BitVec 64))
(declare-fun StMem_0x12a531d0 () (_ BitVec 64))
(declare-fun fmul_0x7ffff146e520 () (_ BitVec 64))
(declare-fun fdiv_0x7ffff146c9f0 () (_ BitVec 64))
(declare-fun node_0x7ffff146dfb0 () (_ BitVec 64))
(declare-fun fsub_0x7ffff146e150 () (_ BitVec 64))
(declare-fun LdMem_0x7ffff146dd30 () (_ BitVec 64))
(declare-fun node_0x7ffff146dbb0 () (_ BitVec 64))
(declare-fun pcso_node_0x12a5ffb0 () (_ BitVec 64))
(declare-fun StMem_0x12a60190 () (_ BitVec 64))
(declare-fun node_0x7ffff146d080 () (_ BitVec 64))
(declare-fun pcso_node_0x12a5a1f0 () (_ BitVec 64))
(declare-fun StMem_0x12a5a3d0 () (_ BitVec 64))
(declare-fun node_0x12a56ef0 () (_ BitVec 64))
(declare-fun parg_node_0x107b61b0_CS0x406d048 () (_ BitVec 64))
(declare-fun LdMem_0x12a56cc0 () (_ BitVec 64))
(declare-fun parg_node_0x12a52970 () (_ BitVec 64))
(declare-fun StMem_0x12a527c0 () (_ BitVec 64))
(declare-fun node_0x107b7d30_CS0x406d048 () (_ BitVec 64))
(declare-fun node_0x12a59e80 () (_ BitVec 64))
(declare-fun parg_node_0x12a4df10_CS0x406d548 () (_ BitVec 64))
(declare-fun LdMem_0x12a59830 () (_ BitVec 64))
(declare-fun parg_node_0x12a59b50 () (_ BitVec 64))
(declare-fun StMem_0x12a599a0 () (_ BitVec 64))
(declare-fun node_0x12a4fab0_CS0x406d548 () (_ BitVec 64))
(declare-fun node_0x12a77f30 () (_ BitVec 64))
(declare-fun parg_node_0x107ae730_CS0x4072bc8 () (_ BitVec 64))
(declare-fun LdMem_0x12a77bc0 () (_ BitVec 64))
(declare-fun parg_node_0x12a5f7d0 () (_ BitVec 64))
(declare-fun StMem_0x12a5f620 () (_ BitVec 64))
(declare-fun node_0x107b0280_CS0x4072bc8 () (_ BitVec 64))
(declare-fun node_0x12a7ab60 () (_ BitVec 64))
(declare-fun parg_node_0x107b61b0_CS0x4072e38 () (_ BitVec 64))
(declare-fun LdMem_0x12a7a7f0 () (_ BitVec 64))
(declare-fun node_0x107b7d30_CS0x4072e38 () (_ BitVec 64))
(declare-fun node_0x12a5c710 () (_ BitVec 64))
(declare-fun parg_node_0x12a497d0_CS0x406d7b8 () (_ BitVec 64))
(declare-fun LdMem_0x12a5c060 () (_ BitVec 64))
(declare-fun parg_node_0x12a5c380 () (_ BitVec 64))
(declare-fun StMem_0x12a5c1d0 () (_ BitVec 64))
(declare-fun node_0x12a4b3d0_CS0x406d7b8 () (_ BitVec 64))
(declare-fun node_0x12a83880 () (_ BitVec 64))
(declare-fun parg_node_0x107ae730_CS0x4074038 () (_ BitVec 64))
(declare-fun LdMem_0x12a83510 () (_ BitVec 64))
(declare-fun node_0x107b0280_CS0x4074038 () (_ BitVec 64))
(assert
 (and (distinct node_0x7ffff1460eb0 (_ bv0 64)) true))
(assert
 (let (($x246 (= node_0x7ffff1449060 (_ bv1 1))))
 (let (($x259 (not $x246)))
 (let (($x248 (= node_0x7ffff1449840 (_ bv1 1))))
 (let (($x209 (not $x248)))
 (let (($x1273 (and $x209 $x259)))
 (let (($x1164 (and (= node_0x7ffff144c8f0 (_ bv1 1)) $x1273)))
 (let (($x1293 (and (not (= node_0x7ffff1450ee0 (_ bv1 1))) $x1164)))
 (let (($x926 (= node_0x7ffff1450ee0 (_ bv1 1))))
 (let (($x1211 (and $x926 $x1164)))
 (let (($x1108 (or (and (not (= node_0x7ffff1457740 (_ bv1 1))) $x1211) (and (not (= node_0x7ffff1458460 (_ bv1 1))) $x1293))))
 (let (($x343190 (= node_0x7ffff145e8f0 (_ bv1 1))))
 (let (($x431 (not $x343190)))
 (and $x431 $x1108))))))))))))))
(assert
 (let (($x875 (= node_0x7ffff145e8f0 ine_0x7ffff149bb00)))
 (let ((?x210 (ite (and (distinct node_0x7ffff148ac00 (_ bv0 32)) true) (_ bv1 1) (_ bv0 1))))
 (let (($x1092 (= ine_0x7ffff149bb00 ?x210)))
 (let (($x136 (= node_0x7ffff148ac00 (_ bv0 32))))
 (let (($x1080 (= node_0x7ffff148ac00 (_ bv1 32))))
 (let (($x971 (= node_0x7ffff1447850 (_ bv1 1))))
 (let (($x977 (not $x971)))
 (let (($x976 (= node_0x7ffff14483e0 (_ bv1 1))))
 (let (($x203 (and $x976 $x977)))
 (let (($x1476 (not $x203)))
 (let (($x1129 (or $x977 $x1080)))
 (let (($x939 (= node_0x7ffff148c630 (_ bv1 32))))
 (let ((?x940 (ite $x939 (_ bv1 1) (_ bv0 1))))
 (let (($x1285 (= ieq_0x7ffff14923c0 ?x940)))
 (let (($x137 (= node_0x7ffff1458460 ieq_0x7ffff14923c0)))
 (let (($x841 (= node_0x7ffff148c630 (_ bv0 32))))
 (let ((?x842 (ite $x841 (_ bv1 1) (_ bv0 1))))
 (let (($x1169 (= ieq_0x7ffff1492020 ?x842)))
 (let (($x880 (= node_0x7ffff1457740 ieq_0x7ffff1492020)))
 (let (($x1258 (= node_0x7ffff1449060 or_0x7ffff148e6b0)))
 (let (($x811 (= fogt_0x7ffff148e360 (ite (bvsgt node_0x7ffff148c0d0 carg_node_0x7ffff1443b00) (_ bv1 1) (_ bv0 1)))))
 (let (($x1069 (= node_0x7ffff148e1c0 fogt_0x7ffff148e360)))
 (let ((?x262 (bvor node_0x7ffff148dcd0 node_0x7ffff148e1c0)))
 (let (($x222 (= or_0x7ffff148e6b0 ?x262)))
 (let (($x265 (bvsle node_0x7ffff148d890 node_0x7ffff148c0d0)))
 (let ((?x266 (ite $x265 (_ bv1 1) (_ bv0 1))))
 (let (($x267 (= fule_0x7ffff148de50 ?x266)))
 (let (($x1015 (= node_0x7ffff148dcd0 fule_0x7ffff148de50)))
 (let (($x1177 (= node_0x7ffff1449840 fogt_0x7ffff148ece0)))
 (let (($x818 (= fogt_0x7ffff148ece0 (ite (bvsgt node_0x7ffff148c0d0 carg_node_0x7ffff1443950) (_ bv1 1) (_ bv0 1)))))
 (let (($x600 (= node_0x7ffff148bbe0 (_ bv1 1))))
 (let ((?x601 (ite $x600 node_0x7ffff148a910 node_0x7ffff148b380)))
 (let (($x602 (= select_0x7ffff148c270 ?x601)))
 (let (($x1255 (= node_0x7ffff148c0d0 select_0x7ffff148c270)))
 (let (($x966 (= node_0x7ffff144c8f0 and_0x7ffff14900c0)))
 (let (($x1241 (= folt_0x7ffff148fd60 (ite (bvslt node_0x7ffff148d890 carg_node_0x7ffff1443b00) (_ bv1 1) (_ bv0 1)))))
 (let (($x269 (= node_0x7ffff148fbe0 folt_0x7ffff148fd60)))
 (let (($x1154 (= and_0x7ffff14900c0 (bvand node_0x7ffff148f720 node_0x7ffff148fbe0))))
 (let (($x1117 (= node_0x7ffff148f720 fogt_0x7ffff148f890)))
 (let (($x1158 (= fogt_0x7ffff148f890 (ite (bvsgt node_0x7ffff148d890 carg_node_0x7ffff1443950) (_ bv1 1) (_ bv0 1)))))
 (let (($x1091 (= node_0x7ffff148d890 select_0x7ffff148da30)))
 (let (($x273 (= node_0x7ffff148d3a0 (_ bv1 1))))
 (let ((?x274 (ite $x273 node_0x7ffff148a5e0 node_0x7ffff148cf60)))
 (let (($x275 (= select_0x7ffff148da30 ?x274)))
 (let (($x1102 (= node_0x7ffff148d3a0 folt_0x7ffff148d520)))
 (let (($x280 (= folt_0x7ffff148d520 (ite (bvslt node_0x7ffff148a5e0 node_0x7ffff148cf60) (_ bv1 1) (_ bv0 1)))))
 (let (($x1401 (= node_0x7ffff148a1c0 fdiv_0x7ffff148a360)))
 (let (($x1296 (= node_0x7ffff1489cd0 LdMem_0x7ffff1489e50)))
 (let (($x1420 (= LdMem_0x7ffff1489e50 StMem_0x12a8d000)))
 (let (($x351 (or (or (= node_0x7ffff14891d0 (_ bv0 64)) (= node_0x7ffff1489cd0 (_ bv0 64))) (and (distinct fdiv_0x7ffff148a360 (_ bv0 64)) true))))
 (let (($x346 (= fdiv_0x7ffff148a360 (bvsdiv node_0x7ffff14891d0 node_0x7ffff1489cd0))))
 (let (($x352 (and $x346 $x351)))
 (let (($x1404 (= node_0x7ffff14891d0 fsub_0x7ffff1489370)))
 (let (($x1414 (= node_0x7ffff14881e0 LdMem_0x7ffff1480240)))
 (let (($x358 (= fsub_0x7ffff1489370 (bvsub node_0x7ffff14881e0 node_0x7ffff1488d80))))
 (let (($x1427 (= node_0x7ffff1488d80 LdMem_0x7ffff1488f00)))
 (let (($x1422 (= LdMem_0x7ffff1488f00 StMem_0x12a8a3d0)))
 (let (($x299 (= node_0x7ffff148a5e0 (_ bv0 64))))
 (let (($x294 (= node_0x7ffff148a5e0 node_0x7ffff148a1c0)))
 (let (($x289 (= node_0x7ffff148a5e0 node_0x7ffff1484830)))
 (let (($x1386 (or $x289 $x294 $x299)))
 (let (($x1119 (or $x977 $x289)))
 (let (($x1408 (= node_0x7ffff1484830 fdiv_0x7ffff14849d0)))
 (let (($x1410 (= node_0x7ffff1484340 LdMem_0x7ffff14844c0)))
 (let (($x1411 (= LdMem_0x7ffff14844c0 StMem_0x12a81670)))
 (let (($x312 (or (or (= node_0x7ffff1483840 (_ bv0 64)) (= node_0x7ffff1484340 (_ bv0 64))) (and (distinct fdiv_0x7ffff14849d0 (_ bv0 64)) true))))
 (let (($x307 (= fdiv_0x7ffff14849d0 (bvsdiv node_0x7ffff1483840 node_0x7ffff1484340))))
 (let (($x313 (and $x307 $x312)))
 (let (($x1409 (= node_0x7ffff1483840 fsub_0x7ffff14839e0)))
 (let (($x1407 (= node_0x7ffff1482850 LdMem_0x7ffff14829f0)))
 (let (($x319 (= fsub_0x7ffff14839e0 (bvsub node_0x7ffff1482850 node_0x7ffff14833f0))))
 (let (($x1412 (= node_0x7ffff14833f0 LdMem_0x7ffff1483570)))
 (let (($x1405 (= LdMem_0x7ffff1483570 StMem_0x12a7ea40)))
 (let (($x1421 (= node_0x7ffff148cf60 select_0x7ffff148d100)))
 (let (($x385 (= node_0x7ffff148ca70 (_ bv1 1))))
 (let ((?x386 (ite $x385 node_0x7ffff1474e20 node_0x7ffff147f140)))
 (let (($x387 (= select_0x7ffff148d100 ?x386)))
 (let (($x1418 (= node_0x7ffff148ca70 folt_0x7ffff148cbf0)))
 (let (($x1125 (= node_0x7ffff147ed70 fmul_0x7ffff147ef10)))
 (let (($x564 (= node_0x7ffff147aea0 (_ bv0 64))))
 (let (($x563 (= node_0x7ffff147e9a0 (_ bv0 64))))
 (let (($x565 (or $x563 $x564)))
 (let (($x562 (= fmul_0x7ffff147ef10 (bvmul node_0x7ffff147e9a0 node_0x7ffff147aea0))))
 (let (($x568 (and $x562 (or $x565 (and (distinct fmul_0x7ffff147ef10 (_ bv0 64)) true)))))
 (let (($x531 (= node_0x7ffff147e9a0 fsub_0x7ffff147eb40)))
 (let (($x1248 (= node_0x7ffff147d9b0 LdMem_0x7ffff14754c0)))
 (let (($x574 (= fsub_0x7ffff147eb40 (bvsub node_0x7ffff147d9b0 node_0x7ffff147e550))))
 (let (($x1281 (= node_0x7ffff147e550 LdMem_0x7ffff147e6d0)))
 (let (($x1074 (= LdMem_0x7ffff147e6d0 StMem_0x12a757a0)))
 (let (($x513 (= node_0x7ffff147f140 (_ bv0 64))))
 (let (($x508 (= node_0x7ffff147f140 node_0x7ffff147ed70)))
 (let (($x503 (= node_0x7ffff147f140 node_0x7ffff147a130)))
 (let (($x1187 (or $x503 $x508 $x513)))
 (let (($x953 (= node_0x7ffff1446bd0 (_ bv1 1))))
 (let (($x510 (not $x953)))
 (let (($x947 (= node_0x7ffff1446040 (_ bv1 1))))
 (let (($x954 (not $x947)))
 (let (($x895 (not (and $x954 $x510))))
 (let (($x1429 (or $x954 $x503)))
 (let (($x719 (= node_0x7ffff147a130 fmul_0x7ffff147a2d0)))
 (let (($x523 (= node_0x7ffff14763a0 (_ bv0 64))))
 (let (($x522 (= node_0x7ffff1479d60 (_ bv0 64))))
 (let (($x524 (or $x522 $x523)))
 (let ((?x520 (bvmul node_0x7ffff1479d60 node_0x7ffff14763a0)))
 (let (($x529 (and (= fmul_0x7ffff147a2d0 ?x520) (or $x524 (and (distinct fmul_0x7ffff147a2d0 (_ bv0 64)) true)))))
 (let (($x193 (= node_0x7ffff1479d60 fsub_0x7ffff1479f00)))
 (let (($x135 (= node_0x7ffff1478dc0 LdMem_0x7ffff1478f60)))
 (let (($x535 (= fsub_0x7ffff1479f00 (bvsub node_0x7ffff1478dc0 node_0x7ffff1479960))))
 (let (($x470 (= node_0x7ffff1479960 LdMem_0x7ffff1479ae0)))
 (let (($x1088 (= LdMem_0x7ffff1479ae0 StMem_0x12a6f7e0)))
 (let (($x392 (= folt_0x7ffff148cbf0 (ite (bvslt node_0x7ffff1474e20 node_0x7ffff147f140) (_ bv1 1) (_ bv0 1)))))
 (let (($x1402 (= node_0x7ffff14744a0 fmul_0x7ffff1474640)))
 (let (($x464 (= node_0x7ffff1470cc0 (_ bv0 64))))
 (let (($x463 (= node_0x7ffff14740d0 (_ bv0 64))))
 (let (($x465 (or $x463 $x464)))
 (let (($x462 (= fmul_0x7ffff1474640 (bvmul node_0x7ffff14740d0 node_0x7ffff1470cc0))))
 (let (($x468 (and $x462 (or $x465 (and (distinct fmul_0x7ffff1474640 (_ bv0 64)) true)))))
 (let (($x1387 (= node_0x7ffff14740d0 fsub_0x7ffff1474270)))
 (let (($x1388 (= node_0x7ffff14730e0 LdMem_0x7ffff146d200)))
 (let (($x474 (= fsub_0x7ffff1474270 (bvsub node_0x7ffff14730e0 node_0x7ffff1473c80))))
 (let (($x1385 (= node_0x7ffff1473c80 LdMem_0x7ffff1473e00)))
 (let (($x1393 (= LdMem_0x7ffff1473e00 StMem_0x12a69230)))
 (let (($x409 (= node_0x7ffff1474e20 (_ bv0 64))))
 (let (($x404 (= node_0x7ffff1474e20 node_0x7ffff14744a0)))
 (let (($x399 (= node_0x7ffff1474e20 node_0x7ffff146ff40)))
 (let (($x1397 (or $x399 $x404 $x409)))
 (let (($x929 (= node_0x7ffff1445290 (_ bv1 1))))
 (let (($x406 (not $x929)))
 (let (($x86 (= node_0x7ffff1444e70 (_ bv1 1))))
 (let (($x930 (not $x86)))
 (let (($x884 (not (and $x930 $x406))))
 (let (($x1415 (or $x930 $x399)))
 (let (($x1394 (= node_0x7ffff146ff40 fmul_0x7ffff14700e0)))
 (let (($x419 (= node_0x7ffff146c880 (_ bv0 64))))
 (let (($x418 (= node_0x7ffff146fb70 (_ bv0 64))))
 (let (($x420 (or $x418 $x419)))
 (let ((?x416 (bvmul node_0x7ffff146fb70 node_0x7ffff146c880)))
 (let (($x423 (and (= fmul_0x7ffff14700e0 ?x416) (or $x420 (and (distinct fmul_0x7ffff14700e0 (_ bv0 64)) true)))))
 (let (($x1395 (= node_0x7ffff146fb70 fsub_0x7ffff146fd10)))
 (let (($x1396 (= node_0x7ffff146eb80 LdMem_0x7ffff146ed00)))
 (let (($x429 (= fsub_0x7ffff146fd10 (bvsub node_0x7ffff146eb80 node_0x7ffff146f720))))
 (let (($x1391 (= node_0x7ffff146f720 LdMem_0x7ffff146f8a0)))
 (let (($x1392 (= LdMem_0x7ffff146f8a0 StMem_0x12a63270)))
 (let (($x1221 (= node_0x7ffff1450ee0 islt_0x7ffff14911c0)))
 (let ((?x825 (ite (bvslt node_0x7ffff148c630 (_ bv1 32)) (_ bv1 1) (_ bv0 1))))
 (let (($x1061 (= islt_0x7ffff14911c0 ?x825)))
 (let (($x1477 (= node_0x7ffff148c630 select_0x7ffff148c7d0)))
 (let (($x684 (= node_0x7ffff148aef0 (_ bv1 1))))
 (let ((?x836 (ite $x684 (_ bv0 32) (_ bv1 32))))
 (let (($x837 (= select_0x7ffff148b940 ?x836)))
 (let (($x700 (= node_0x7ffff148b7c0 select_0x7ffff148b940)))
 (let ((?x831 (ite $x600 (_ bv2 32) node_0x7ffff148b7c0)))
 (let (($x832 (= select_0x7ffff148c7d0 ?x831)))
 (let (($x1478 (= node_0x7ffff148bbe0 fogt_0x7ffff148bd60)))
 (let (($x605 (= fogt_0x7ffff148bd60 (ite (bvsgt node_0x7ffff148a910 node_0x7ffff148b380) (_ bv1 1) (_ bv0 1)))))
 (let (($x1471 (= node_0x7ffff14879c0 fdiv_0x7ffff1487b60)))
 (let (($x931 (= node_0x7ffff14874d0 LdMem_0x7ffff1487650)))
 (let (($x504 (= LdMem_0x7ffff1487650 StMem_0x12a873f0)))
 (let (($x656 (or (or (= node_0x7ffff14868c0 (_ bv0 64)) (= node_0x7ffff14874d0 (_ bv0 64))) (and (distinct fdiv_0x7ffff1487b60 (_ bv0 64)) true))))
 (let (($x651 (= fdiv_0x7ffff1487b60 (bvsdiv node_0x7ffff14868c0 node_0x7ffff14874d0))))
 (let (($x657 (and $x651 $x656)))
 (let (($x172 (= node_0x7ffff14868c0 fsub_0x7ffff1486a60)))
 (let (($x401 (= node_0x7ffff1486470 LdMem_0x7ffff14865f0)))
 (let (($x281 (= LdMem_0x7ffff14865f0 StMem_0x12a84650)))
 (let (($x663 (= fsub_0x7ffff1486a60 (bvsub node_0x7ffff1485920 node_0x7ffff1486470))))
 (let (($x974 (= LdMem_0x7ffff14829f0 StMem_0x12a5d480)))
 (let (($x612 (= node_0x7ffff148a910 (_ bv0 64))))
 (let (($x610 (= node_0x7ffff148a910 node_0x7ffff14879c0)))
 (let (($x607 (= node_0x7ffff148a910 node_0x7ffff1482030)))
 (let (($x1284 (or $x607 $x610 $x612)))
 (let (($x221 (= folt_0x7ffff1484c50 (ite (bvslt node_0x7ffff146b6d0 (_ bv0 64)) (_ bv1 1) (_ bv0 1)))))
 (let (($x1237 (= node_0x7ffff14483e0 folt_0x7ffff1484c50)))
 (let (($x1236 (or $x977 $x607)))
 (let (($x1426 (= node_0x7ffff1447850 fogt_0x7ffff147fa50)))
 (let (($x204 (= fogt_0x7ffff147fa50 (ite (bvsgt node_0x7ffff146b6d0 (_ bv0 64)) (_ bv1 1) (_ bv0 1)))))
 (let (($x1424 (= node_0x7ffff146b6d0 LdMem_0x7ffff146b850)))
 (let (($x915 (= LdMem_0x7ffff146b850 StMem_0x12a57c90)))
 (let (($x1224 (= node_0x7ffff1482030 fdiv_0x7ffff14821d0)))
 (let (($x1473 (= node_0x7ffff1481b40 LdMem_0x7ffff1481cc0)))
 (let (($x1502 (= LdMem_0x7ffff1481cc0 StMem_0x12a7b930)))
 (let (($x625 (or (or (= node_0x7ffff1481040 (_ bv0 64)) (= node_0x7ffff1481b40 (_ bv0 64))) (and (distinct fdiv_0x7ffff14821d0 (_ bv0 64)) true))))
 (let (($x620 (= fdiv_0x7ffff14821d0 (bvsdiv node_0x7ffff1481040 node_0x7ffff1481b40))))
 (let (($x626 (and $x620 $x625)))
 (let (($x1459 (= node_0x7ffff1481040 fsub_0x7ffff14811e0)))
 (let (($x1228 (= node_0x7ffff1480bf0 LdMem_0x7ffff1480d70)))
 (let (($x321 (= LdMem_0x7ffff1480d70 StMem_0x12a78d00)))
 (let (($x632 (= fsub_0x7ffff14811e0 (bvsub node_0x7ffff14800a0 node_0x7ffff1480bf0))))
 (let (($x1230 (= LdMem_0x7ffff1480240 StMem_0x12a5abf0)))
 (let (($x1468 (= node_0x7ffff148b380 select_0x7ffff148b520)))
 (let ((?x685 (ite $x684 node_0x7ffff14757a0 node_0x7ffff147f470)))
 (let (($x686 (= select_0x7ffff148b520 ?x685)))
 (let (($x1469 (= node_0x7ffff148aef0 fogt_0x7ffff148b050)))
 (let (($x1315 (= node_0x7ffff14664f0 fmul_0x7ffff1466690)))
 (let (($x554 (= node_0x7ffff146ab20 (_ bv0 64))))
 (let (($x451 (= (_ bv1 64) (_ bv0 64))))
 (let (($x555 (or $x451 $x554)))
 (let (($x594 (and (= fdiv_0x7ffff147b010 (bvsdiv (_ bv1 64) node_0x7ffff146ab20)) (or $x555 (and (distinct fdiv_0x7ffff147b010 (_ bv0 64)) true)))))
 (let (($x790 (or (or (= node_0x7ffff147c610 (_ bv0 64)) $x564) (and (distinct fmul_0x7ffff1466690 (_ bv0 64)) true))))
 (let (($x786 (= fmul_0x7ffff1466690 (bvmul node_0x7ffff147c610 node_0x7ffff147aea0))))
 (let (($x791 (and $x786 $x790)))
 (let (($x872 (= node_0x7ffff147c610 fsub_0x7ffff14662c0)))
 (let (($x871 (= node_0x7ffff147c1c0 LdMem_0x7ffff147c340)))
 (let (($x934 (= LdMem_0x7ffff147c340 StMem_0x12a727c0)))
 (let (($x797 (= fsub_0x7ffff14662c0 (bvsub node_0x7ffff147b670 node_0x7ffff147c1c0))))
 (let (($x885 (= LdMem_0x7ffff1478f60 StMem_0x12a5d030)))
 (let (($x755 (= node_0x7ffff147f470 (_ bv0 64))))
 (let (($x753 (= node_0x7ffff147f470 node_0x7ffff14664f0)))
 (let (($x750 (= node_0x7ffff147f470 node_0x7ffff14785d0)))
 (let (($x1317 (or $x750 $x753 $x755)))
 (let (($x146 (= folt_0x7ffff147a500 (ite (bvslt node_0x7ffff146ab20 (_ bv0 64)) (_ bv1 1) (_ bv0 1)))))
 (let (($x1058 (= node_0x7ffff1446bd0 folt_0x7ffff147a500)))
 (let (($x920 (or $x954 $x750)))
 (let (($x1106 (= node_0x7ffff1446040 fogt_0x7ffff1475f20)))
 (let (($x132 (= fogt_0x7ffff1475f20 (ite (bvsgt node_0x7ffff146ab20 (_ bv0 64)) (_ bv1 1) (_ bv0 1)))))
 (let (($x1006 (= node_0x7ffff146ab20 LdMem_0x7ffff146aca0)))
 (let (($x1322 (= LdMem_0x7ffff146aca0 StMem_0x12a55410)))
 (let (($x1127 (= node_0x7ffff14785d0 fmul_0x7ffff1478770)))
 (let (($x558 (and (= fdiv_0x7ffff1476d20 (bvsdiv (_ bv1 64) node_0x7ffff146ab20)) (or $x555 (and (distinct fdiv_0x7ffff1476d20 (_ bv0 64)) true)))))
 (let (($x1099 (= node_0x7ffff14763a0 fdiv_0x7ffff1476d20)))
 (let (($x766 (or (or (= node_0x7ffff1478200 (_ bv0 64)) $x523) (and (distinct fmul_0x7ffff1478770 (_ bv0 64)) true))))
 (let (($x762 (= fmul_0x7ffff1478770 (bvmul node_0x7ffff1478200 node_0x7ffff14763a0))))
 (let (($x767 (and $x762 $x766)))
 (let (($x1051 (= node_0x7ffff1478200 fsub_0x7ffff14783a0)))
 (let (($x1052 (= node_0x7ffff1477db0 LdMem_0x7ffff1477f30)))
 (let (($x108 (= LdMem_0x7ffff1477f30 StMem_0x12a6c720)))
 (let (($x773 (= fsub_0x7ffff14783a0 (bvsub node_0x7ffff1477350 node_0x7ffff1477db0))))
 (let (($x1252 (= LdMem_0x7ffff14754c0 StMem_0x12a5a7a0)))
 (let (($x691 (= fogt_0x7ffff148b050 (ite (bvsgt node_0x7ffff14757a0 node_0x7ffff147f470) (_ bv1 1) (_ bv0 1)))))
 (let (($x1066 (= node_0x7ffff1472910 fmul_0x7ffff1472ab0)))
 (let (($x452 (= node_0x7ffff1469fe0 (_ bv0 64))))
 (let (($x453 (or $x451 $x452)))
 (let (($x496 (and (= fdiv_0x7ffff1470e30 (bvsdiv (_ bv1 64) node_0x7ffff1469fe0)) (or $x453 (and (distinct fdiv_0x7ffff1470e30 (_ bv0 64)) true)))))
 (let (($x733 (or (or (= node_0x7ffff1472540 (_ bv0 64)) $x464) (and (distinct fmul_0x7ffff1472ab0 (_ bv0 64)) true))))
 (let (($x729 (= fmul_0x7ffff1472ab0 (bvmul node_0x7ffff1472540 node_0x7ffff1470cc0))))
 (let (($x734 (and $x729 $x733)))
 (let (($x959 (= node_0x7ffff1472540 fsub_0x7ffff14726e0)))
 (let (($x1059 (= node_0x7ffff14720f0 LdMem_0x7ffff1472270)))
 (let (($x1287 (= LdMem_0x7ffff1472270 StMem_0x12a66250)))
 (let (($x740 (= fsub_0x7ffff14726e0 (bvsub node_0x7ffff1471490 node_0x7ffff14720f0))))
 (let (($x900 (= LdMem_0x7ffff146ed00 StMem_0x12a5cc60)))
 (let (($x698 (= node_0x7ffff14757a0 (_ bv0 64))))
 (let (($x696 (= node_0x7ffff14757a0 node_0x7ffff1472910)))
 (let (($x693 (= node_0x7ffff14757a0 node_0x7ffff146e380)))
 (let (($x458 (or $x693 $x696 $x698)))
 (let (($x103 (= folt_0x7ffff14705a0 (ite (bvslt node_0x7ffff1469fe0 (_ bv0 64)) (_ bv1 1) (_ bv0 1)))))
 (let (($x290 (= node_0x7ffff1445290 folt_0x7ffff14705a0)))
 (let (($x140 (or $x930 $x693)))
 (let (($x938 (= node_0x7ffff1444e70 fogt_0x7ffff146c340)))
 (let (($x176 (= fogt_0x7ffff146c340 (ite (bvsgt node_0x7ffff1469fe0 (_ bv0 64)) (_ bv1 1) (_ bv0 1)))))
 (let (($x1225 (= node_0x7ffff1469fe0 LdMem_0x7ffff146a160)))
 (let (($x1467 (= LdMem_0x7ffff146a160 StMem_0x12a531d0)))
 (let (($x425 (= node_0x7ffff146e380 fmul_0x7ffff146e520)))
 (let (($x455 (and (= fdiv_0x7ffff146c9f0 (bvsdiv (_ bv1 64) node_0x7ffff1469fe0)) (or $x453 (and (distinct fdiv_0x7ffff146c9f0 (_ bv0 64)) true)))))
 (let (($x1333 (= node_0x7ffff146c880 fdiv_0x7ffff146c9f0)))
 (let (($x709 (or (or (= node_0x7ffff146dfb0 (_ bv0 64)) $x419) (and (distinct fmul_0x7ffff146e520 (_ bv0 64)) true))))
 (let (($x705 (= fmul_0x7ffff146e520 (bvmul node_0x7ffff146dfb0 node_0x7ffff146c880))))
 (let (($x710 (and $x705 $x709)))
 (let (($x485 (= node_0x7ffff146dfb0 fsub_0x7ffff146e150)))
 (let (($x1336 (= node_0x7ffff146dbb0 LdMem_0x7ffff146dd30)))
 (let (($x1330 (= LdMem_0x7ffff146dd30 StMem_0x12a60190)))
 (let (($x716 (= fsub_0x7ffff146e150 (bvsub node_0x7ffff146d080 node_0x7ffff146dbb0))))
 (let (($x1054 (= LdMem_0x7ffff146d200 StMem_0x12a5a3d0)))
 (and (or (not (= R0x7ffff1443440 (_ bv1 1))) $x1054) $x1054 (= StMem_0x12a5a3d0 pcso_node_0x12a5a1f0) (= node_0x7ffff146d080 LdMem_0x7ffff146d200) $x716 (or (not (= R0x7ffff1443440 (_ bv1 1))) $x1330) $x1330 (= StMem_0x12a60190 pcso_node_0x12a5ffb0) $x1336 $x485 $x710 $x1333 $x455 $x425 (or (not (= R0x7ffff1443440 (_ bv1 1))) $x1467) $x1467 (= StMem_0x12a531d0 pcso_node_0x12a52ff0) $x1225 $x176 $x938 $x140 (or (not (and $x929 $x930)) $x696) $x290 $x103 (or $x884 $x698) $x458 (or (not (= R0x7ffff1443440 (_ bv1 1))) $x900) $x900 (= StMem_0x12a5cc60 pcso_node_0x12a5ca80) (= node_0x7ffff1471490 LdMem_0x7ffff146ed00) $x740 (or (not (= R0x7ffff1443440 (_ bv1 1))) $x1287) $x1287 (= StMem_0x12a66250 pcso_node_0x12a66070) $x1059 $x959 $x734 (= node_0x7ffff1470cc0 fdiv_0x7ffff1470e30) $x496 $x1066 $x691 (or (not (= R0x7ffff1443440 (_ bv1 1))) $x1252) $x1252 (= StMem_0x12a5a7a0 pcso_node_0x12a5a5f0) (= node_0x7ffff1477350 LdMem_0x7ffff14754c0) $x773 (or (not (= R0x7ffff1443440 (_ bv1 1))) $x108) $x108 (= StMem_0x12a6c720 pcso_node_0x12a6c570) $x1052 $x1051 $x767 $x1099 $x558 $x1127 (or (not (= R0x7ffff1443440 (_ bv1 1))) $x1322) $x1322 (= StMem_0x12a55410 pcso_node_0x12a55260) $x1006 $x132 $x1106 $x920 (or (not (and $x953 $x954)) $x753) $x1058 $x146 (or $x895 $x755) $x1317 (or (not (= R0x7ffff1443440 (_ bv1 1))) $x885) $x885 (= StMem_0x12a5d030 pcso_node_0x12a5ce80) (= node_0x7ffff147b670 LdMem_0x7ffff1478f60) $x797 (or (not (= R0x7ffff1443440 (_ bv1 1))) $x934) $x934 (= StMem_0x12a727c0 pcso_node_0x12a72610) $x871 $x872 $x791 (= node_0x7ffff147aea0 fdiv_0x7ffff147b010) $x594 $x1315 $x1469 $x686 $x1468 (or (not (= R0x7ffff1443440 (_ bv1 1))) $x1230) $x1230 (= StMem_0x12a5abf0 pcso_node_0x12a5aa40) (= node_0x7ffff14800a0 LdMem_0x7ffff1480240) $x632 (or (not (= R0x7ffff1443440 (_ bv1 1))) $x321) $x321 (= StMem_0x12a78d00 pcso_node_0x12a78b50) $x1228 $x1459 $x626 (or (not (= R0x7ffff1443440 (_ bv1 1))) $x1502) $x1502 (= StMem_0x12a7b930 pcso_node_0x12a7b780) $x1473 $x1224 (or (not (= R0x7ffff1443440 (_ bv1 1))) $x915) $x915 (= StMem_0x12a57c90 pcso_node_0x12a57ae0) $x1424 $x204 $x1426 $x1236 (or $x1476 $x610) $x1237 $x221 (or (not (and $x977 (not $x976))) $x612) $x1284 (or (not (= R0x7ffff1443440 (_ bv1 1))) $x974) $x974 (= StMem_0x12a5d480 pcso_node_0x12a5d2d0) (= node_0x7ffff1485920 LdMem_0x7ffff14829f0) $x663 (or (not (= R0x7ffff1443440 (_ bv1 1))) $x281) $x281 (= StMem_0x12a84650 pcso_node_0x12a844a0) $x401 $x172 $x657 (or (not (= R0x7ffff1443440 (_ bv1 1))) $x504) $x504 (= StMem_0x12a873f0 pcso_node_0x12a87240) $x931 $x1471 $x605 $x1478 $x832 $x700 $x837 $x1477 $x1061 $x1221 (or (not (= R0x7ffff1443440 (_ bv1 1))) $x1392) $x1392 (= StMem_0x12a63270 pcso_node_0x12a63090) $x1391 $x429 $x1396 $x1395 $x423 $x1394 $x1415 (or (not (and $x929 $x930)) $x404) (or $x884 $x409) $x1397 (or (not (= R0x7ffff1443440 (_ bv1 1))) $x1393) $x1393 (= StMem_0x12a69230 pcso_node_0x12a69050) $x1385 $x474 $x1388 $x1387 $x468 $x1402 $x392 (or (not (= R0x7ffff1443440 (_ bv1 1))) $x1088) $x1088 (= StMem_0x12a6f7e0 pcso_node_0x12a6f630) $x470 $x535 $x135 $x193 $x529 $x719 $x1429 (or (not (and $x953 $x954)) $x508) (or $x895 $x513) $x1187 (or (not (= R0x7ffff1443440 (_ bv1 1))) $x1074) $x1074 (= StMem_0x12a757a0 pcso_node_0x12a755f0) $x1281 $x574 $x1248 $x531 $x568 $x1125 $x1418 $x387 $x1421 (or (not (= R0x7ffff1443440 (_ bv1 1))) $x1405) $x1405 (= StMem_0x12a7ea40 pcso_node_0x12a7e890) $x1412 $x319 $x1407 $x1409 $x313 (or (not (= R0x7ffff1443440 (_ bv1 1))) $x1411) $x1411 (= StMem_0x12a81670 pcso_node_0x12a814c0) $x1410 $x1408 $x1119 (or $x1476 $x294) (or (not (and $x977 (not $x976))) $x299) $x1386 (or (not (= R0x7ffff1443440 (_ bv1 1))) $x1422) $x1422 (= StMem_0x12a8a3d0 pcso_node_0x12a8a220) $x1427 $x358 $x1414 $x1404 $x352 (or (not (= R0x7ffff1443440 (_ bv1 1))) $x1420) $x1420 (= StMem_0x12a8d000 pcso_node_0x12a8ce50) $x1296 $x1401 $x280 $x1102 $x275 $x1091 $x1158 $x1117 $x1154 $x269 $x1241 $x966 $x1255 $x602 $x818 $x1177 $x1015 $x267 $x222 $x1069 $x811 $x1258 $x880 $x1169 $x137 $x1285 $x1129 (or (not (and $x977 (not $x976))) $x136) (or $x1476 $x136) (or $x1080 $x136 $x136) $x1092 $x875))))))))))))))))))))))))))))))))))))))))))))))))))))))))))))))))))))))))))))))))))))))))))))))))))))))))))))))))))))))))))))))))))))))))))))))))))))))))))))))))))))))))))))))))))))))))))))))))))))))))))))))))))))))))))))))))))))))))))))))))))))))))))))))))))))))))
(assert
 (= parg_node_0x107b61b0_CS0x406d048 node_0x12a56ef0))
(assert
 (let (($x1319 (= node_0x12a56ef0 LdMem_0x12a56cc0)))
 (let (($x1105 (= LdMem_0x12a56cc0 StMem_0x12a527c0)))
 (and (or (not (= R0x7ffff1443440 (_ bv1 1))) $x1105) $x1105 (= StMem_0x12a527c0 parg_node_0x12a52970) $x1319))))
(assert
 (= node_0x107b7d30_CS0x406d048 pcso_node_0x12a57ae0))
(assert
 (= parg_node_0x12a4df10_CS0x406d548 node_0x12a59e80))
(assert
 (let (($x1324 (= node_0x12a59e80 LdMem_0x12a59830)))
 (let (($x1344 (= LdMem_0x12a59830 StMem_0x12a599a0)))
 (and (or (not (= R0x7ffff1443440 (_ bv1 1))) $x1344) $x1344 (= StMem_0x12a599a0 parg_node_0x12a59b50) $x1324))))
(assert
 (= node_0x12a4fab0_CS0x406d548 pcso_node_0x12a5aa40))
(assert
 (= parg_node_0x107ae730_CS0x4072bc8 node_0x12a77f30))
(assert
 (let (($x1335 (= node_0x12a77f30 LdMem_0x12a77bc0)))
 (let (($x1339 (= LdMem_0x12a77bc0 StMem_0x12a5f620)))
 (and (or (not (= R0x7ffff1443440 (_ bv1 1))) $x1339) $x1339 (= StMem_0x12a5f620 parg_node_0x12a5f7d0) $x1335))))
(assert
 (= node_0x107b0280_CS0x4072bc8 pcso_node_0x12a78b50))
(assert
 (= parg_node_0x107b61b0_CS0x4072e38 node_0x12a7ab60))
(assert
 (let (($x1347 (= LdMem_0x12a7a7f0 StMem_0x12a527c0)))
 (and (or (not (= R0x7ffff1443440 (_ bv1 1))) $x1347) $x1347 (= node_0x12a7ab60 LdMem_0x12a7a7f0))))
(assert
 (= node_0x107b7d30_CS0x4072e38 pcso_node_0x12a7b780))
(assert
 (= parg_node_0x12a497d0_CS0x406d7b8 node_0x12a5c710))
(assert
 (let (($x1173 (= node_0x12a5c710 LdMem_0x12a5c060)))
 (let (($x1321 (= LdMem_0x12a5c060 StMem_0x12a5c1d0)))
 (and (or (not (= R0x7ffff1443440 (_ bv1 1))) $x1321) $x1321 (= StMem_0x12a5c1d0 parg_node_0x12a5c380) $x1173))))
(assert
 (= node_0x12a4b3d0_CS0x406d7b8 pcso_node_0x12a5d2d0))
(assert
 (= parg_node_0x107ae730_CS0x4074038 node_0x12a83880))
(assert
 (let (($x1303 (= LdMem_0x12a83510 StMem_0x12a5f620)))
 (and (or (not (= R0x7ffff1443440 (_ bv1 1))) $x1303) $x1303 (= node_0x12a83880 LdMem_0x12a83510))))
(assert
 (= node_0x107b0280_CS0x4074038 pcso_node_0x12a844a0))
(assert
 (and (distinct node_0x7ffff1460eb0 (_ bv0 64)) true))
(minimize StMem_0x12a8d000)
(minimize node_0x7ffff148a910)
(minimize fsub_0x7ffff1479f00)
(maximize pcso_node_0x12a55260)
(maximize pcso_node_0x12a5aa40)
(minimize LdMem_0x7ffff1472270)
(minimize LdMem_0x7ffff146f8a0)
(maximize parg_node_0x107ae730_CS0x4074038)
(minimize node_0x7ffff1445290)
(minimize LdMem_0x7ffff146aca0)
(minimize fsub_0x7ffff146fd10)
(minimize fmul_0x7ffff147a2d0)
(maximize node_0x7ffff1472540)
(minimize node_0x7ffff147b670)
(minimize LdMem_0x7ffff1480d70)
(maximize LdMem_0x7ffff146aca0)
(maximize LdMem_0x7ffff14844c0)
(minimize node_0x7ffff146b6d0)
(maximize fogt_0x7ffff147fa50)
(maximize node_0x107b0280_CS0x4074038)
(minimize node_0x7ffff1469fe0)
(maximize node_0x7ffff14483e0)
(minimize StMem_0x12a66250)
(minimize node_0x7ffff146f720)
(maximize StMem_0x12a60190)
(maximize node_0x7ffff1482030)
(minimize node_0x7ffff1478dc0)
(maximize pcso_node_0x12a57ae0)
(minimize node_0x7ffff14800a0)
(maximize or_0x7ffff148e6b0)
(maximize parg_node_0x12a59b50)
(maximize node_0x7ffff147e550)
(minimize node_0x7ffff148d890)
(minimize pcso_node_0x12a5a1f0)
(maximize node_0x7ffff147a130)
(minimize StMem_0x12a6c720)
(minimize StMem_0x12a5f620)
(maximize StMem_0x12a6f7e0)
(maximize node_0x7ffff1489cd0)
(maximize pcso_node_0x12a7e890)
(maximize select_0x7ffff148b940)
(minimize StMem_0x12a5a7a0)
(maximize node_0x7ffff1482850)
(maximize node_0x7ffff14879c0)
(minimize node_0x7ffff1449060)
(maximize LdMem_0x12a77bc0)
(maximize node_0x7ffff1472910)
(minimize node_0x7ffff14891d0)
(minimize fogt_0x7ffff148e360)
(minimize node_0x7ffff1482030)
(minimize node_0x7ffff1484340)
(maximize fmul_0x7ffff1466690)
(maximize parg_node_0x12a4df10_CS0x406d548)
(minimize pcso_node_0x12a8a220)
(minimize fmul_0x7ffff146e520)
(minimize fdiv_0x7ffff1470e30)
(maximize node_0x7ffff1478200)
(maximize StMem_0x12a5a7a0)
(maximize node_0x7ffff1484340)
(minimize node_0x7ffff1471490)
(minimize ieq_0x7ffff1492020)
(minimize fdiv_0x7ffff1476d20)
(minimize node_0x12a7ab60)
(minimize StMem_0x12a7b930)
(minimize node_0x7ffff146d080)
(maximize fdiv_0x7ffff1487b60)
(minimize LdMem_0x7ffff1479ae0)
(maximize node_0x7ffff14833f0)
(minimize fmul_0x7ffff1472ab0)
(maximize LdMem_0x7ffff1487650)
(maximize node_0x7ffff14730e0)
(minimize node_0x7ffff148e1c0)
(minimize node_0x7ffff1485920)
(minimize fogt_0x7ffff1475f20)
(maximize StMem_0x12a5a3d0)
(minimize node_0x7ffff148bbe0)
(check-sat)
(get-objectives)
